
Gurobi 7.0.2 (mac64, Python) logging started Wed Sep 12 17:47:28 2018


Gurobi 7.0.2 (mac64, Python) logging started Wed Sep 12 17:50:31 2018


Gurobi 7.0.2 (mac64, Python) logging started Wed Sep 12 17:56:34 2018


Gurobi 7.0.2 (mac64, Python) logging started Wed Sep 12 17:57:11 2018


Gurobi 7.0.2 (mac64, Python) logging started Wed Sep 12 17:58:55 2018

